PreSolver/instances/dataset_final_sat/sat_tseitin_40_280_58095.cnf
c description: Tseitin formula on , with even charge
c generator: CNFgen (0.9.0)
c copyright: (C) 2012-2020 Massimo Lauria <massimo.lauria@uniroma1.it>
c url: https://massimolauria.net/cnfgen
c
p cnf 40 280
1 2 3 4 5 -6 0
1 2 3 4 -5 6 0
1 2 3 -4 5 6 0
1 2 3 -4 -5 -6 0
1 2 -3 4 5 6 0
1 2 -3 4 -5 -6 0
1 2 -3 -4 5 -6 0
1 2 -3 -4 -5 6 0
1 -2 3 4 5 6 0
1 -2 3 4 -5 -6 0
1 -2 3 -4 5 -6 0
1 -2 3 -4 -5 6 0
1 -2 -3 4 5 -6 0
1 -2 -3 4 -5 6 0
1 -2 -3 -4 5 6 0
1 -2 -3 -4 -5 -6 0
-1 2 3 4 5 6 0
-1 2 3 4 -5 -6 0
-1 2 3 -4 5 -6 0
-1 2 3 -4 -5 6 0
-1 2 -3 4 5 -6 0
-1 2 -3 4 -5 6 0
-1 2 -3 -4 5 6 0
-1 2 -3 -4 -5 -6 0
-1 -2 3 4 5 -6 0
-1 -2 3 4 -5 6 0
-1 -2 3 -4 5 6 0
-1 -2 3 -4 -5 -6 0
-1 -2 -3 4 5 6 0
-1 -2 -3 4 -5 -6 0
-1 -2 -3 -4 5 -6 0
-1 -2 -3 -4 -5 6 0
1 7 8 9 -10 0
1 7 8 -9 10 0
1 7 -8 9 10 0
1 7 -8 -9 -10 0
1 -7 8 9 10 0
1 -7 8 -9 -10 0
1 -7 -8 9 -10 0
1 -7 -8 -9 10 0
-1 7 8 9 10 0
-1 7 8 -9 -10 0
-1 7 -8 9 -10 0
-1 7 -8 -9 10 0
-1 -7 8 9 -10 0
-1 -7 8 -9 10 0
-1 -7 -8 9 10 0
-1 -7 -8 -9 -10 0
7 11 12 -13 0
7 11 -12 13 0
7 -11 12 13 0
7 -11 -12 -13 0
-7 11 12 13 0
-7 11 -12 -13 0
-7 -11 12 -13 0
-7 -11 -12 13 0
14 15 16 17 18 -19 0
14 15 16 17 -18 19 0
14 15 16 -17 18 19 0
14 15 16 -17 -18 -19 0
14 15 -16 17 18 19 0
14 15 -16 17 -18 -19 0
14 15 -16 -17 18 -19 0
14 15 -16 -17 -18 19 0
14 -15 16 17 18 19 0
14 -15 16 17 -18 -19 0
14 -15 16 -17 18 -19 0
14 -15 16 -17 -18 19 0
14 -15 -16 17 18 -19 0
14 -15 -16 17 -18 19 0
14 -15 -16 -17 18 19 0
14 -15 -16 -17 -18 -19 0
-14 15 16 17 18 19 0
-14 15 16 17 -18 -19 0
-14 15 16 -17 18 -19 0
-14 15 16 -17 -18 19 0
-14 15 -16 17 18 -19 0
-14 15 -16 17 -18 19 0
-14 15 -16 -17 18 19 0
-14 15 -16 -17 -18 -19 0
-14 -15 16 17 18 -19 0
-14 -15 16 17 -18 19 0
-14 -15 16 -17 18 19 0
-14 -15 16 -17 -18 -19 0
-14 -15 -16 17 18 19 0
-14 -15 -16 17 -18 -19 0
-14 -15 -16 -17 18 -19 0
-14 -15 -16 -17 -18 19 0
14 -20 0
-14 20 0
2 21 -22 0
2 -21 22 0
-2 21 22 0
-2 -21 -22 0
-23 0
3 24 -25 0
3 -24 25 0
-3 24 25 0
-3 -24 -25 0
4 24 -26 0
4 -24 26 0
-4 24 26 0
-4 -24 -26 0
8 11 20 27 -28 0
8 11 20 -27 28 0
8 11 -20 27 28 0
8 11 -20 -27 -28 0
8 -11 20 27 28 0
8 -11 20 -27 -28 0
8 -11 -20 27 -28 0
8 -11 -20 -27 28 0
-8 11 20 27 28 0
-8 11 20 -27 -28 0
-8 11 -20 27 -28 0
-8 11 -20 -27 28 0
-8 -11 20 27 -28 0
-8 -11 20 -27 28 0
-8 -11 -20 27 28 0
-8 -11 -20 -27 -28 0
5 9 -15 0
5 -9 15 0
-5 9 15 0
-5 -9 -15 0
27 29 -30 0
27 -29 30 0
-27 29 30 0
-27 -29 -30 0
31 32 33 -34 0
31 32 -33 34 0
31 -32 33 34 0
31 -32 -33 -34 0
-31 32 33 34 0
-31 32 -33 -34 0
-31 -32 33 -34 0
-31 -32 -33 34 0
12 31 35 36 -37 0
12 31 35 -36 37 0
12 31 -35 36 37 0
12 31 -35 -36 -37 0
12 -31 35 36 37 0
12 -31 35 -36 -37 0
12 -31 -35 36 -37 0
12 -31 -35 -36 37 0
-12 31 35 36 37 0
-12 31 35 -36 -37 0
-12 31 -35 36 -37 0
-12 31 -35 -36 37 0
-12 -31 35 36 -37 0
-12 -31 35 -36 37 0
-12 -31 -35 36 37 0
-12 -31 -35 -36 -37 0
16 29 32 38 -39 0
16 29 32 -38 39 0
16 29 -32 38 39 0
16 29 -32 -38 -39 0
16 -29 32 38 39 0
16 -29 32 -38 -39 0
16 -29 -32 38 -39 0
16 -29 -32 -38 39 0
-16 29 32 38 39 0
-16 29 32 -38 -39 0
-16 29 -32 38 -39 0
-16 29 -32 -38 39 0
-16 -29 32 38 -39 0
-16 -29 32 -38 39 0
-16 -29 -32 38 39 0
-16 -29 -32 -38 -39 0
17 23 33 -38 0
17 23 -33 38 0
17 -23 33 38 0
17 -23 -33 -38 0
-17 23 33 38 0
-17 23 -33 -38 0
-17 -23 33 -38 0
-17 -23 -33 38 0
6 21 25 26 34 35 -39 0
6 21 25 26 34 -35 39 0
6 21 25 26 -34 35 39 0
6 21 25 26 -34 -35 -39 0
6 21 25 -26 34 35 39 0
6 21 25 -26 34 -35 -39 0
6 21 25 -26 -34 35 -39 0
6 21 25 -26 -34 -35 39 0
6 21 -25 26 34 35 39 0
6 21 -25 26 34 -35 -39 0
6 21 -25 26 -34 35 -39 0
6 21 -25 26 -34 -35 39 0
6 21 -25 -26 34 35 -39 0
6 21 -25 -26 34 -35 39 0
6 21 -25 -26 -34 35 39 0
6 21 -25 -26 -34 -35 -39 0
6 -21 25 26 34 35 39 0
6 -21 25 26 34 -35 -39 0
6 -21 25 26 -34 35 -39 0
6 -21 25 26 -34 -35 39 0
6 -21 25 -26 34 35 -39 0
6 -21 25 -26 34 -35 39 0
6 -21 25 -26 -34 35 39 0
6 -21 25 -26 -34 -35 -39 0
6 -21 -25 26 34 35 -39 0
6 -21 -25 26 34 -35 39 0
6 -21 -25 26 -34 35 39 0
6 -21 -25 26 -34 -35 -39 0
6 -21 -25 -26 34 35 39 0
6 -21 -25 -26 34 -35 -39 0
6 -21 -25 -26 -34 35 -39 0
6 -21 -25 -26 -34 -35 39 0
-6 21 25 26 34 35 39 0
-6 21 25 26 34 -35 -39 0
-6 21 25 26 -34 35 -39 0
-6 21 25 26 -34 -35 39 0
-6 21 25 -26 34 35 -39 0
-6 21 25 -26 34 -35 39 0
-6 21 25 -26 -34 35 39 0
-6 21 25 -26 -34 -35 -39 0
-6 21 -25 26 34 35 -39 0
-6 21 -25 26 34 -35 39 0
-6 21 -25 26 -34 35 39 0
-6 21 -25 26 -34 -35 -39 0
-6 21 -25 -26 34 35 39 0
-6 21 -25 -26 34 -35 -39 0
-6 21 -25 -26 -34 35 -39 0
-6 21 -25 -26 -34 -35 39 0
-6 -21 25 26 34 35 -39 0
-6 -21 25 26 34 -35 39 0
-6 -21 25 26 -34 35 39 0
-6 -21 25 26 -34 -35 -39 0
-6 -21 25 -26 34 35 39 0
-6 -21 25 -26 34 -35 -39 0
-6 -21 25 -26 -34 35 -39 0
-6 -21 25 -26 -34 -35 39 0
-6 -21 -25 26 34 35 39 0
-6 -21 -25 26 34 -35 -39 0
-6 -21 -25 26 -34 35 -39 0
-6 -21 -25 26 -34 -35 39 0
-6 -21 -25 -26 34 35 -39 0
-6 -21 -25 -26 34 -35 39 0
-6 -21 -25 -26 -34 35 39 0
-6 -21 -25 -26 -34 -35 -39 0
18 22 36 -40 0
18 22 -36 40 0
18 -22 36 40 0
18 -22 -36 -40 0
-18 22 36 40 0
-18 22 -36 -40 0
-18 -22 36 -40 0
-18 -22 -36 40 0
10 13 28 30 37 -40 0
10 13 28 30 -37 40 0
10 13 28 -30 37 40 0
10 13 28 -30 -37 -40 0
10 13 -28 30 37 40 0
10 13 -28 30 -37 -40 0
10 13 -28 -30 37 -40 0
10 13 -28 -30 -37 40 0
10 -13 28 30 37 40 0
10 -13 28 30 -37 -40 0
10 -13 28 -30 37 -40 0
10 -13 28 -30 -37 40 0
10 -13 -28 30 37 -40 0
10 -13 -28 30 -37 40 0
10 -13 -28 -30 37 40 0
10 -13 -28 -30 -37 -40 0
-10 13 28 30 37 40 0
-10 13 28 30 -37 -40 0
-10 13 28 -30 37 -40 0
-10 13 28 -30 -37 40 0
-10 13 -28 30 37 -40 0
-10 13 -28 30 -37 40 0
-10 13 -28 -30 37 40 0
-10 13 -28 -30 -37 -40 0
-10 -13 28 30 37 -40 0
-10 -13 28 30 -37 40 0
-10 -13 28 -30 37 40 0
-10 -13 28 -30 -37 -40 0
-10 -13 -28 30 37 40 0
-10 -13 -28 30 -37 -40 0
-10 -13 -28 -30 37 -40 0
-10 -13 -28 -30 -37 40 0
-19 0