PreSolver/instances/dataset_final_sat/results_control_0/sat_tseitin_40_280_58095.txt

c instance name       :  PreSolver/PreSolver/instances/dataset_final_sat/sat_tseitin_40_280_58095.cnf
c number of variables :  40
c number of literals  :  80
c number of clauses   :  280
c max. clause length  :  7

c probSAT parameteres: 
c using:              : only break          
c using:              : exponential function
c cb                  : 5.400000
c function:           : probsBreak[break]*probsMake[make] = pow(cb, -break);
c using:              : caching of break values

c general parameteres: 
c maxTries            : 9223372036854775807
c maxFlips            : 9223372036854775807
c seed                : 1691587298
c -->Starting solver  : 

c EndStatistics:
c numFlips                      : 15       
c avg. flips/variable           : 0.38    
c avg. flips/clause             : 0.05    
c flips/sec                     : inf     
c CPU Time                      : 0.0000  
c Number of tries		: 1
s SATISFIABLE
v -1 2 -3 -4 -5 6 -7 -8 -9 -10 -11 12 13 -14 -15 16 17 -18 -19 -20 
v 21 -22 -23 24 25 26 27 28 29 -30 31 -32 -33 34 -35 -36 -37 38 39 -40 